(set-logic AUFLIA)
(declare-fun F__0 (Int Int) Bool)
(declare-fun F__1 (Int Int) Bool)
(declare-fun F__2 (Int Int) Bool)
(declare-fun F__3 (Int Int) Bool)
(declare-fun F__4 (Int Int) Bool)
(declare-fun F__5 (Int Int) Bool)
(declare-fun F__6 (Int Int) Bool)
(declare-fun F__7 (Int Int) Bool)
(declare-fun F__8 (Int Int) Bool)
(declare-fun F__9 (Int Int) Bool)
(declare-fun F__10 (Int Int) Bool)
(declare-fun F__11 (Int Int) Bool)
(declare-fun F__12 (Int Int) Bool)
(declare-fun F__13 (Int Int) Bool)
(declare-fun F__14 (Int Int) Bool)
(declare-fun F__15 (Int Int) Bool)
(declare-fun F__16 (Int Int) Bool)
(declare-fun F__17 (Int Int) Bool)
(declare-fun F__18 (Int Int) Bool)
(declare-fun F__19 (Int Int) Bool)
(declare-fun F__20 (Int Int) Bool)
(declare-fun F_ERR (Int Int) Bool)
(declare-fun In_0 (Int) Bool)
(assert (forall ((tmp Int) (tmp_0 Int))
        (=> (= tmp_0 0) (F__0 0 tmp_0))))
(assert (forall ((tmp_1 Int) (tmp_2 Int))
        (=> (and (F__0 tmp_1 tmp_2) (distinct (In_0 tmp_2) true)) (F__1 (+ tmp_1 1) (+ tmp_2 1)))))
(assert (forall ((tmp_3 Int) (tmp_4 Int))
        (=> (and (F__0 tmp_3 tmp_4) (= (In_0 tmp_4) true)) (F_ERR tmp_3 (+ tmp_4 1)))))
(assert (forall ((tmp_5 Int) (tmp_6 Int))
        (=> (and (F__1 tmp_5 tmp_6) (distinct (In_0 tmp_6) true)) (F__2 (+ tmp_5 1) (+ tmp_6 1)))))
(assert (forall ((tmp_7 Int) (tmp_8 Int))
        (=> (and (F__1 tmp_7 tmp_8) (= (In_0 tmp_8) true)) (F_ERR tmp_7 (+ tmp_8 1)))))
(assert (forall ((tmp_9 Int) (tmp_10 Int))
        (=> (and (F__2 tmp_9 tmp_10) (distinct (In_0 tmp_10) true)) (F__3 (+ tmp_9 1) (+ tmp_10 1)))))
(assert (forall ((tmp_11 Int) (tmp_12 Int))
        (=> (and (F__2 tmp_11 tmp_12) (= (In_0 tmp_12) true)) (F_ERR tmp_11 (+ tmp_12 1)))))
(assert (forall ((tmp_13 Int) (tmp_14 Int))
        (=> (and (F__3 tmp_13 tmp_14) (distinct (In_0 tmp_14) true)) (F__4 (+ tmp_13 1) (+ tmp_14 1)))))
(assert (forall ((tmp_15 Int) (tmp_16 Int))
        (=> (and (F__3 tmp_15 tmp_16) (= (In_0 tmp_16) true)) (F_ERR tmp_15 (+ tmp_16 1)))))
(assert (forall ((tmp_17 Int) (tmp_18 Int))
        (=> (and (F__4 tmp_17 tmp_18) (distinct (In_0 tmp_18) true)) (F__5 (+ tmp_17 1) (+ tmp_18 1)))))
(assert (forall ((tmp_19 Int) (tmp_20 Int))
        (=> (and (F__4 tmp_19 tmp_20) (= (In_0 tmp_20) true)) (F_ERR tmp_19 (+ tmp_20 1)))))
(assert (forall ((tmp_21 Int) (tmp_22 Int))
        (=> (and (F__5 tmp_21 tmp_22) (distinct (In_0 tmp_22) true)) (F__6 (+ tmp_21 1) (+ tmp_22 1)))))
(assert (forall ((tmp_23 Int) (tmp_24 Int))
        (=> (and (F__5 tmp_23 tmp_24) (= (In_0 tmp_24) true)) (F_ERR tmp_23 (+ tmp_24 1)))))
(assert (forall ((tmp_25 Int) (tmp_26 Int))
        (=> (and (F__6 tmp_25 tmp_26) (distinct (In_0 tmp_26) true)) (F__7 (+ tmp_25 1) (+ tmp_26 1)))))
(assert (forall ((tmp_27 Int) (tmp_28 Int))
        (=> (and (F__6 tmp_27 tmp_28) (= (In_0 tmp_28) true)) (F_ERR tmp_27 (+ tmp_28 1)))))
(assert (forall ((tmp_29 Int) (tmp_30 Int))
        (=> (and (F__7 tmp_29 tmp_30) (distinct (In_0 tmp_30) true)) (F__8 (+ tmp_29 1) (+ tmp_30 1)))))
(assert (forall ((tmp_31 Int) (tmp_32 Int))
        (=> (and (F__7 tmp_31 tmp_32) (= (In_0 tmp_32) true)) (F_ERR tmp_31 (+ tmp_32 1)))))
(assert (forall ((tmp_33 Int) (tmp_34 Int))
        (=> (and (F__8 tmp_33 tmp_34) (distinct (In_0 tmp_34) true)) (F__9 (+ tmp_33 1) (+ tmp_34 1)))))
(assert (forall ((tmp_35 Int) (tmp_36 Int))
        (=> (and (F__8 tmp_35 tmp_36) (= (In_0 tmp_36) true)) (F_ERR tmp_35 (+ tmp_36 1)))))
(assert (forall ((tmp_37 Int) (tmp_38 Int))
        (=> (and (F__9 tmp_37 tmp_38) (distinct (In_0 tmp_38) true)) (F__10 (+ tmp_37 1) (+ tmp_38 1)))))
(assert (forall ((tmp_39 Int) (tmp_40 Int))
        (=> (and (F__9 tmp_39 tmp_40) (= (In_0 tmp_40) true)) (F_ERR tmp_39 (+ tmp_40 1)))))
(assert (forall ((tmp_41 Int) (tmp_42 Int))
        (=> (and (F__10 tmp_41 tmp_42) (distinct (In_0 tmp_42) true)) (F__11 (+ tmp_41 1) (+ tmp_42 1)))))
(assert (forall ((tmp_43 Int) (tmp_44 Int))
        (=> (and (F__10 tmp_43 tmp_44) (= (In_0 tmp_44) true)) (F_ERR tmp_43 (+ tmp_44 1)))))
(assert (forall ((tmp_45 Int) (tmp_46 Int))
        (=> (and (F__11 tmp_45 tmp_46) (distinct (In_0 tmp_46) true)) (F__12 (+ tmp_45 1) (+ tmp_46 1)))))
(assert (forall ((tmp_47 Int) (tmp_48 Int))
        (=> (and (F__11 tmp_47 tmp_48) (= (In_0 tmp_48) true)) (F_ERR tmp_47 (+ tmp_48 1)))))
(assert (forall ((tmp_49 Int) (tmp_50 Int))
        (=> (and (F__12 tmp_49 tmp_50) (distinct (In_0 tmp_50) true)) (F__13 (+ tmp_49 1) (+ tmp_50 1)))))
(assert (forall ((tmp_51 Int) (tmp_52 Int))
        (=> (and (F__12 tmp_51 tmp_52) (= (In_0 tmp_52) true)) (F_ERR tmp_51 (+ tmp_52 1)))))
(assert (forall ((tmp_53 Int) (tmp_54 Int))
        (=> (and (F__13 tmp_53 tmp_54) (distinct (In_0 tmp_54) true)) (F__14 (+ tmp_53 1) (+ tmp_54 1)))))
(assert (forall ((tmp_55 Int) (tmp_56 Int))
        (=> (and (F__13 tmp_55 tmp_56) (= (In_0 tmp_56) true)) (F_ERR tmp_55 (+ tmp_56 1)))))
(assert (forall ((tmp_57 Int) (tmp_58 Int))
        (=> (and (F__14 tmp_57 tmp_58) (distinct (In_0 tmp_58) true)) (F__15 (+ tmp_57 1) (+ tmp_58 1)))))
(assert (forall ((tmp_59 Int) (tmp_60 Int))
        (=> (and (F__14 tmp_59 tmp_60) (= (In_0 tmp_60) true)) (F_ERR tmp_59 (+ tmp_60 1)))))
(assert (forall ((tmp_61 Int) (tmp_62 Int))
        (=> (and (F__15 tmp_61 tmp_62) (distinct (In_0 tmp_62) true)) (F__16 (+ tmp_61 1) (+ tmp_62 1)))))
(assert (forall ((tmp_63 Int) (tmp_64 Int))
        (=> (and (F__15 tmp_63 tmp_64) (= (In_0 tmp_64) true)) (F_ERR tmp_63 (+ tmp_64 1)))))
(assert (forall ((tmp_65 Int) (tmp_66 Int))
        (=> (and (F__16 tmp_65 tmp_66) (distinct (In_0 tmp_66) true)) (F__17 (+ tmp_65 1) (+ tmp_66 1)))))
(assert (forall ((tmp_67 Int) (tmp_68 Int))
        (=> (and (F__16 tmp_67 tmp_68) (= (In_0 tmp_68) true)) (F_ERR tmp_67 (+ tmp_68 1)))))
(assert (forall ((tmp_69 Int) (tmp_70 Int))
        (=> (and (F__17 tmp_69 tmp_70) (distinct (In_0 tmp_70) true)) (F__18 (+ tmp_69 1) (+ tmp_70 1)))))
(assert (forall ((tmp_71 Int) (tmp_72 Int))
        (=> (and (F__17 tmp_71 tmp_72) (= (In_0 tmp_72) true)) (F_ERR tmp_71 (+ tmp_72 1)))))
(assert (forall ((tmp_73 Int) (tmp_74 Int))
        (=> (and (F__18 tmp_73 tmp_74) (distinct (In_0 tmp_74) true)) (F__19 (+ tmp_73 1) (+ tmp_74 1)))))
(assert (forall ((tmp_75 Int) (tmp_76 Int))
        (=> (and (F__18 tmp_75 tmp_76) (= (In_0 tmp_76) true)) (F_ERR tmp_75 (+ tmp_76 1)))))
(assert (forall ((tmp_77 Int) (tmp_78 Int))
        (=> (and (F__19 tmp_77 tmp_78) (distinct (In_0 tmp_78) true)) (F__20 (+ tmp_77 1) (+ tmp_78 1)))))
(assert (forall ((tmp_79 Int) (tmp_80 Int))
        (=> (and (F__19 tmp_79 tmp_80) (= (In_0 tmp_80) true)) (F_ERR tmp_79 (+ tmp_80 1)))))
(assert (forall ((tmp_81 Int) (tmp_82 Int))
        (=> (and (F__0 tmp_81 tmp_82) (not (distinct (In_0 tmp_82) true))) (F__0 tmp_81 tmp_82))))
(assert (forall ((tmp_83 Int) (tmp_84 Int))
        (=> (and (F__1 tmp_83 tmp_84) (not (distinct (In_0 tmp_84) true))) (F__1 tmp_83 tmp_84))))
(assert (forall ((tmp_85 Int) (tmp_86 Int))
        (=> (and (F__1 tmp_85 tmp_86) (and (not (= (In_0 tmp_86) true)) (not (= (In_0 tmp_86) true)))) (F__1 tmp_85 (+ tmp_86 1)))))
(assert (forall ((tmp_87 Int) (tmp_88 Int))
        (=> (and (F__1 tmp_87 tmp_88) (not (= (In_0 tmp_88) true))) (F__1 tmp_87 tmp_88))))
(assert (forall ((tmp_89 Int) (tmp_90 Int))
        (=> (and (F__1 tmp_89 tmp_90) (and (not (distinct (In_0 tmp_90) true)) (not (distinct (In_0 tmp_90) true)))) (F__1 tmp_89 (+ tmp_90 1)))))
(assert (forall ((tmp_91 Int) (tmp_92 Int))
        (=> (and (F__4 tmp_91 tmp_92) (not (distinct (In_0 tmp_92) true))) (F__4 tmp_91 tmp_92))))
(assert (forall ((tmp_93 Int) (tmp_94 Int))
        (=> (and (F__4 tmp_93 tmp_94) (and (not (= (In_0 tmp_94) true)) (not (= (In_0 tmp_94) true)))) (F__4 tmp_93 (+ tmp_94 1)))))
(assert (forall ((tmp_95 Int) (tmp_96 Int))
        (=> (and (F__4 tmp_95 tmp_96) (not (= (In_0 tmp_96) true))) (F__4 tmp_95 tmp_96))))
(assert (forall ((tmp_97 Int) (tmp_98 Int))
        (=> (and (F__4 tmp_97 tmp_98) (and (not (distinct (In_0 tmp_98) true)) (not (distinct (In_0 tmp_98) true)))) (F__4 tmp_97 (+ tmp_98 1)))))
(assert (forall ((tmp_99 Int) (tmp_100 Int))
        (=> (and (F__5 tmp_99 tmp_100) (not (distinct (In_0 tmp_100) true))) (F__5 tmp_99 tmp_100))))
(assert (forall ((tmp_101 Int) (tmp_102 Int))
        (=> (and (F__5 tmp_101 tmp_102) (and (not (= (In_0 tmp_102) true)) (not (= (In_0 tmp_102) true)))) (F__5 tmp_101 (+ tmp_102 1)))))
(assert (forall ((tmp_103 Int) (tmp_104 Int))
        (=> (and (F__5 tmp_103 tmp_104) (not (= (In_0 tmp_104) true))) (F__5 tmp_103 tmp_104))))
(assert (forall ((tmp_105 Int) (tmp_106 Int))
        (=> (and (F__5 tmp_105 tmp_106) (and (not (distinct (In_0 tmp_106) true)) (not (distinct (In_0 tmp_106) true)))) (F__5 tmp_105 (+ tmp_106 1)))))
(assert (forall ((tmp_107 Int) (tmp_108 Int))
        (=> (and (F__6 tmp_107 tmp_108) (not (distinct (In_0 tmp_108) true))) (F__6 tmp_107 tmp_108))))
(assert (forall ((tmp_109 Int) (tmp_110 Int))
        (=> (and (F__6 tmp_109 tmp_110) (and (not (= (In_0 tmp_110) true)) (not (= (In_0 tmp_110) true)))) (F__6 tmp_109 (+ tmp_110 1)))))
(assert (forall ((tmp_111 Int) (tmp_112 Int))
        (=> (and (F__6 tmp_111 tmp_112) (not (= (In_0 tmp_112) true))) (F__6 tmp_111 tmp_112))))
(assert (forall ((tmp_113 Int) (tmp_114 Int))
        (=> (and (F__6 tmp_113 tmp_114) (and (not (distinct (In_0 tmp_114) true)) (not (distinct (In_0 tmp_114) true)))) (F__6 tmp_113 (+ tmp_114 1)))))
(assert (forall ((tmp_115 Int) (tmp_116 Int))
        (=> (and (F__7 tmp_115 tmp_116) (not (distinct (In_0 tmp_116) true))) (F__7 tmp_115 tmp_116))))
(assert (forall ((tmp_117 Int) (tmp_118 Int))
        (=> (and (F__7 tmp_117 tmp_118) (and (not (= (In_0 tmp_118) true)) (not (= (In_0 tmp_118) true)))) (F__7 tmp_117 (+ tmp_118 1)))))
(assert (forall ((tmp_119 Int) (tmp_120 Int))
        (=> (and (F__7 tmp_119 tmp_120) (not (= (In_0 tmp_120) true))) (F__7 tmp_119 tmp_120))))
(assert (forall ((tmp_121 Int) (tmp_122 Int))
        (=> (and (F__7 tmp_121 tmp_122) (and (not (distinct (In_0 tmp_122) true)) (not (distinct (In_0 tmp_122) true)))) (F__7 tmp_121 (+ tmp_122 1)))))
(assert (forall ((tmp_123 Int) (tmp_124 Int))
        (=> (and (F__16 tmp_123 tmp_124) (not (distinct (In_0 tmp_124) true))) (F__16 tmp_123 tmp_124))))
(assert (forall ((tmp_125 Int) (tmp_126 Int))
        (=> (and (F__16 tmp_125 tmp_126) (and (not (= (In_0 tmp_126) true)) (not (= (In_0 tmp_126) true)))) (F__16 tmp_125 (+ tmp_126 1)))))
(assert (forall ((tmp_127 Int) (tmp_128 Int))
        (=> (and (F__16 tmp_127 tmp_128) (not (= (In_0 tmp_128) true))) (F__16 tmp_127 tmp_128))))
(assert (forall ((tmp_129 Int) (tmp_130 Int))
        (=> (and (F__16 tmp_129 tmp_130) (and (not (distinct (In_0 tmp_130) true)) (not (distinct (In_0 tmp_130) true)))) (F__16 tmp_129 (+ tmp_130 1)))))
(assert (forall ((tmp_131 Int) (tmp_132 Int))
        (=> (and (F__17 tmp_131 tmp_132) (not (distinct (In_0 tmp_132) true))) (F__17 tmp_131 tmp_132))))
(assert (forall ((tmp_133 Int) (tmp_134 Int))
        (=> (and (F__17 tmp_133 tmp_134) (and (not (= (In_0 tmp_134) true)) (not (= (In_0 tmp_134) true)))) (F__17 tmp_133 (+ tmp_134 1)))))
(assert (forall ((tmp_135 Int) (tmp_136 Int))
        (=> (and (F__17 tmp_135 tmp_136) (not (= (In_0 tmp_136) true))) (F__17 tmp_135 tmp_136))))
(assert (forall ((tmp_137 Int) (tmp_138 Int))
        (=> (and (F__17 tmp_137 tmp_138) (and (not (distinct (In_0 tmp_138) true)) (not (distinct (In_0 tmp_138) true)))) (F__17 tmp_137 (+ tmp_138 1)))))
(assert (forall ((tmp_139 Int) (tmp_140 Int))
        (=> (and (F__18 tmp_139 tmp_140) (not (distinct (In_0 tmp_140) true))) (F__18 tmp_139 tmp_140))))
(assert (forall ((tmp_141 Int) (tmp_142 Int))
        (=> (and (F__18 tmp_141 tmp_142) (and (not (= (In_0 tmp_142) true)) (not (= (In_0 tmp_142) true)))) (F__18 tmp_141 (+ tmp_142 1)))))
(assert (forall ((tmp_143 Int) (tmp_144 Int))
        (=> (and (F__18 tmp_143 tmp_144) (not (= (In_0 tmp_144) true))) (F__18 tmp_143 tmp_144))))
(assert (forall ((tmp_145 Int) (tmp_146 Int))
        (=> (and (F__18 tmp_145 tmp_146) (and (not (distinct (In_0 tmp_146) true)) (not (distinct (In_0 tmp_146) true)))) (F__18 tmp_145 (+ tmp_146 1)))))
(assert (forall ((tmp_147 Int) (tmp_148 Int))
        (=> (and (F__19 tmp_147 tmp_148) (not (distinct (In_0 tmp_148) true))) (F__19 tmp_147 tmp_148))))
(assert (forall ((tmp_149 Int) (tmp_150 Int))
        (=> (and (F__19 tmp_149 tmp_150) (and (not (= (In_0 tmp_150) true)) (not (= (In_0 tmp_150) true)))) (F__19 tmp_149 (+ tmp_150 1)))))
(assert (forall ((tmp_151 Int) (tmp_152 Int))
        (=> (and (F__19 tmp_151 tmp_152) (not (= (In_0 tmp_152) true))) (F__19 tmp_151 tmp_152))))
(assert (forall ((tmp_153 Int) (tmp_154 Int))
        (=> (and (F__19 tmp_153 tmp_154) (and (not (distinct (In_0 tmp_154) true)) (not (distinct (In_0 tmp_154) true)))) (F__19 tmp_153 (+ tmp_154 1)))))
(assert (forall ((tmp_155 Int) (tmp_156 Int))
        (=> (F__0 tmp_155 tmp_156) (and (and (and (and (and (and (and (and (and (and (and (and (and (and (and (and (and (and (and (and (not (F__1 tmp_155 tmp_156)) (not (F__2 tmp_155 tmp_156))) (not (F__3 tmp_155 tmp_156))) (not (F__4 tmp_155 tmp_156))) (not (F__5 tmp_155 tmp_156))) (not (F__6 tmp_155 tmp_156))) (not (F__7 tmp_155 tmp_156))) (not (F__8 tmp_155 tmp_156))) (not (F__9 tmp_155 tmp_156))) (not (F__10 tmp_155 tmp_156))) (not (F__11 tmp_155 tmp_156))) (not (F__12 tmp_155 tmp_156))) (not (F__13 tmp_155 tmp_156))) (not (F__14 tmp_155 tmp_156))) (not (F__15 tmp_155 tmp_156))) (not (F__16 tmp_155 tmp_156))) (not (F__17 tmp_155 tmp_156))) (not (F__18 tmp_155 tmp_156))) (not (F__19 tmp_155 tmp_156))) (not (F__20 tmp_155 tmp_156))) (not (F_ERR tmp_155 tmp_156))))))
(assert (forall ((tmp_157 Int) (tmp_158 Int))
        (=> (F__1 tmp_157 tmp_158) (and (and (and (and (and (and (and (and (and (and (and (and (and (and (and (and (and (and (and (and (not (F__0 tmp_157 tmp_158)) (not (F__2 tmp_157 tmp_158))) (not (F__3 tmp_157 tmp_158))) (not (F__4 tmp_157 tmp_158))) (not (F__5 tmp_157 tmp_158))) (not (F__6 tmp_157 tmp_158))) (not (F__7 tmp_157 tmp_158))) (not (F__8 tmp_157 tmp_158))) (not (F__9 tmp_157 tmp_158))) (not (F__10 tmp_157 tmp_158))) (not (F__11 tmp_157 tmp_158))) (not (F__12 tmp_157 tmp_158))) (not (F__13 tmp_157 tmp_158))) (not (F__14 tmp_157 tmp_158))) (not (F__15 tmp_157 tmp_158))) (not (F__16 tmp_157 tmp_158))) (not (F__17 tmp_157 tmp_158))) (not (F__18 tmp_157 tmp_158))) (not (F__19 tmp_157 tmp_158))) (not (F__20 tmp_157 tmp_158))) (not (F_ERR tmp_157 tmp_158))))))
(assert (forall ((tmp_159 Int) (tmp_160 Int))
        (=> (F__2 tmp_159 tmp_160) (and (and (and (and (and (and (and (and (and (and (and (and (and (and (and (and (and (and (and (and (not (F__0 tmp_159 tmp_160)) (not (F__1 tmp_159 tmp_160))) (not (F__3 tmp_159 tmp_160))) (not (F__4 tmp_159 tmp_160))) (not (F__5 tmp_159 tmp_160))) (not (F__6 tmp_159 tmp_160))) (not (F__7 tmp_159 tmp_160))) (not (F__8 tmp_159 tmp_160))) (not (F__9 tmp_159 tmp_160))) (not (F__10 tmp_159 tmp_160))) (not (F__11 tmp_159 tmp_160))) (not (F__12 tmp_159 tmp_160))) (not (F__13 tmp_159 tmp_160))) (not (F__14 tmp_159 tmp_160))) (not (F__15 tmp_159 tmp_160))) (not (F__16 tmp_159 tmp_160))) (not (F__17 tmp_159 tmp_160))) (not (F__18 tmp_159 tmp_160))) (not (F__19 tmp_159 tmp_160))) (not (F__20 tmp_159 tmp_160))) (not (F_ERR tmp_159 tmp_160))))))
(assert (forall ((tmp_161 Int) (tmp_162 Int))
        (=> (F__3 tmp_161 tmp_162) (and (and (and (and (and (and (and (and (and (and (and (and (and (and (and (and (and (and (and (and (not (F__0 tmp_161 tmp_162)) (not (F__1 tmp_161 tmp_162))) (not (F__2 tmp_161 tmp_162))) (not (F__4 tmp_161 tmp_162))) (not (F__5 tmp_161 tmp_162))) (not (F__6 tmp_161 tmp_162))) (not (F__7 tmp_161 tmp_162))) (not (F__8 tmp_161 tmp_162))) (not (F__9 tmp_161 tmp_162))) (not (F__10 tmp_161 tmp_162))) (not (F__11 tmp_161 tmp_162))) (not (F__12 tmp_161 tmp_162))) (not (F__13 tmp_161 tmp_162))) (not (F__14 tmp_161 tmp_162))) (not (F__15 tmp_161 tmp_162))) (not (F__16 tmp_161 tmp_162))) (not (F__17 tmp_161 tmp_162))) (not (F__18 tmp_161 tmp_162))) (not (F__19 tmp_161 tmp_162))) (not (F__20 tmp_161 tmp_162))) (not (F_ERR tmp_161 tmp_162))))))
(assert (forall ((tmp_163 Int) (tmp_164 Int))
        (=> (F__4 tmp_163 tmp_164) (and (and (and (and (and (and (and (and (and (and (and (and (and (and (and (and (and (and (and (and (not (F__0 tmp_163 tmp_164)) (not (F__1 tmp_163 tmp_164))) (not (F__2 tmp_163 tmp_164))) (not (F__3 tmp_163 tmp_164))) (not (F__5 tmp_163 tmp_164))) (not (F__6 tmp_163 tmp_164))) (not (F__7 tmp_163 tmp_164))) (not (F__8 tmp_163 tmp_164))) (not (F__9 tmp_163 tmp_164))) (not (F__10 tmp_163 tmp_164))) (not (F__11 tmp_163 tmp_164))) (not (F__12 tmp_163 tmp_164))) (not (F__13 tmp_163 tmp_164))) (not (F__14 tmp_163 tmp_164))) (not (F__15 tmp_163 tmp_164))) (not (F__16 tmp_163 tmp_164))) (not (F__17 tmp_163 tmp_164))) (not (F__18 tmp_163 tmp_164))) (not (F__19 tmp_163 tmp_164))) (not (F__20 tmp_163 tmp_164))) (not (F_ERR tmp_163 tmp_164))))))
(assert (forall ((tmp_165 Int) (tmp_166 Int))
        (=> (F__5 tmp_165 tmp_166) (and (and (and (and (and (and (and (and (and (and (and (and (and (and (and (and (and (and (and (and (not (F__0 tmp_165 tmp_166)) (not (F__1 tmp_165 tmp_166))) (not (F__2 tmp_165 tmp_166))) (not (F__3 tmp_165 tmp_166))) (not (F__4 tmp_165 tmp_166))) (not (F__6 tmp_165 tmp_166))) (not (F__7 tmp_165 tmp_166))) (not (F__8 tmp_165 tmp_166))) (not (F__9 tmp_165 tmp_166))) (not (F__10 tmp_165 tmp_166))) (not (F__11 tmp_165 tmp_166))) (not (F__12 tmp_165 tmp_166))) (not (F__13 tmp_165 tmp_166))) (not (F__14 tmp_165 tmp_166))) (not (F__15 tmp_165 tmp_166))) (not (F__16 tmp_165 tmp_166))) (not (F__17 tmp_165 tmp_166))) (not (F__18 tmp_165 tmp_166))) (not (F__19 tmp_165 tmp_166))) (not (F__20 tmp_165 tmp_166))) (not (F_ERR tmp_165 tmp_166))))))
(assert (forall ((tmp_167 Int) (tmp_168 Int))
        (=> (F__6 tmp_167 tmp_168) (and (and (and (and (and (and (and (and (and (and (and (and (and (and (and (and (and (and (and (and (not (F__0 tmp_167 tmp_168)) (not (F__1 tmp_167 tmp_168))) (not (F__2 tmp_167 tmp_168))) (not (F__3 tmp_167 tmp_168))) (not (F__4 tmp_167 tmp_168))) (not (F__5 tmp_167 tmp_168))) (not (F__7 tmp_167 tmp_168))) (not (F__8 tmp_167 tmp_168))) (not (F__9 tmp_167 tmp_168))) (not (F__10 tmp_167 tmp_168))) (not (F__11 tmp_167 tmp_168))) (not (F__12 tmp_167 tmp_168))) (not (F__13 tmp_167 tmp_168))) (not (F__14 tmp_167 tmp_168))) (not (F__15 tmp_167 tmp_168))) (not (F__16 tmp_167 tmp_168))) (not (F__17 tmp_167 tmp_168))) (not (F__18 tmp_167 tmp_168))) (not (F__19 tmp_167 tmp_168))) (not (F__20 tmp_167 tmp_168))) (not (F_ERR tmp_167 tmp_168))))))
(assert (forall ((tmp_169 Int) (tmp_170 Int))
        (=> (F__7 tmp_169 tmp_170) (and (and (and (and (and (and (and (and (and (and (and (and (and (and (and (and (and (and (and (and (not (F__0 tmp_169 tmp_170)) (not (F__1 tmp_169 tmp_170))) (not (F__2 tmp_169 tmp_170))) (not (F__3 tmp_169 tmp_170))) (not (F__4 tmp_169 tmp_170))) (not (F__5 tmp_169 tmp_170))) (not (F__6 tmp_169 tmp_170))) (not (F__8 tmp_169 tmp_170))) (not (F__9 tmp_169 tmp_170))) (not (F__10 tmp_169 tmp_170))) (not (F__11 tmp_169 tmp_170))) (not (F__12 tmp_169 tmp_170))) (not (F__13 tmp_169 tmp_170))) (not (F__14 tmp_169 tmp_170))) (not (F__15 tmp_169 tmp_170))) (not (F__16 tmp_169 tmp_170))) (not (F__17 tmp_169 tmp_170))) (not (F__18 tmp_169 tmp_170))) (not (F__19 tmp_169 tmp_170))) (not (F__20 tmp_169 tmp_170))) (not (F_ERR tmp_169 tmp_170))))))
(assert (forall ((tmp_171 Int) (tmp_172 Int))
        (=> (F__8 tmp_171 tmp_172) (and (and (and (and (and (and (and (and (and (and (and (and (and (and (and (and (and (and (and (and (not (F__0 tmp_171 tmp_172)) (not (F__1 tmp_171 tmp_172))) (not (F__2 tmp_171 tmp_172))) (not (F__3 tmp_171 tmp_172))) (not (F__4 tmp_171 tmp_172))) (not (F__5 tmp_171 tmp_172))) (not (F__6 tmp_171 tmp_172))) (not (F__7 tmp_171 tmp_172))) (not (F__9 tmp_171 tmp_172))) (not (F__10 tmp_171 tmp_172))) (not (F__11 tmp_171 tmp_172))) (not (F__12 tmp_171 tmp_172))) (not (F__13 tmp_171 tmp_172))) (not (F__14 tmp_171 tmp_172))) (not (F__15 tmp_171 tmp_172))) (not (F__16 tmp_171 tmp_172))) (not (F__17 tmp_171 tmp_172))) (not (F__18 tmp_171 tmp_172))) (not (F__19 tmp_171 tmp_172))) (not (F__20 tmp_171 tmp_172))) (not (F_ERR tmp_171 tmp_172))))))
(assert (forall ((tmp_173 Int) (tmp_174 Int))
        (=> (F__9 tmp_173 tmp_174) (and (and (and (and (and (and (and (and (and (and (and (and (and (and (and (and (and (and (and (and (not (F__0 tmp_173 tmp_174)) (not (F__1 tmp_173 tmp_174))) (not (F__2 tmp_173 tmp_174))) (not (F__3 tmp_173 tmp_174))) (not (F__4 tmp_173 tmp_174))) (not (F__5 tmp_173 tmp_174))) (not (F__6 tmp_173 tmp_174))) (not (F__7 tmp_173 tmp_174))) (not (F__8 tmp_173 tmp_174))) (not (F__10 tmp_173 tmp_174))) (not (F__11 tmp_173 tmp_174))) (not (F__12 tmp_173 tmp_174))) (not (F__13 tmp_173 tmp_174))) (not (F__14 tmp_173 tmp_174))) (not (F__15 tmp_173 tmp_174))) (not (F__16 tmp_173 tmp_174))) (not (F__17 tmp_173 tmp_174))) (not (F__18 tmp_173 tmp_174))) (not (F__19 tmp_173 tmp_174))) (not (F__20 tmp_173 tmp_174))) (not (F_ERR tmp_173 tmp_174))))))
(assert (forall ((tmp_175 Int) (tmp_176 Int))
        (=> (F__10 tmp_175 tmp_176) (and (and (and (and (and (and (and (and (and (and (and (and (and (and (and (and (and (and (and (and (not (F__0 tmp_175 tmp_176)) (not (F__1 tmp_175 tmp_176))) (not (F__2 tmp_175 tmp_176))) (not (F__3 tmp_175 tmp_176))) (not (F__4 tmp_175 tmp_176))) (not (F__5 tmp_175 tmp_176))) (not (F__6 tmp_175 tmp_176))) (not (F__7 tmp_175 tmp_176))) (not (F__8 tmp_175 tmp_176))) (not (F__9 tmp_175 tmp_176))) (not (F__11 tmp_175 tmp_176))) (not (F__12 tmp_175 tmp_176))) (not (F__13 tmp_175 tmp_176))) (not (F__14 tmp_175 tmp_176))) (not (F__15 tmp_175 tmp_176))) (not (F__16 tmp_175 tmp_176))) (not (F__17 tmp_175 tmp_176))) (not (F__18 tmp_175 tmp_176))) (not (F__19 tmp_175 tmp_176))) (not (F__20 tmp_175 tmp_176))) (not (F_ERR tmp_175 tmp_176))))))
(assert (forall ((tmp_177 Int) (tmp_178 Int))
        (=> (F__11 tmp_177 tmp_178) (and (and (and (and (and (and (and (and (and (and (and (and (and (and (and (and (and (and (and (and (not (F__0 tmp_177 tmp_178)) (not (F__1 tmp_177 tmp_178))) (not (F__2 tmp_177 tmp_178))) (not (F__3 tmp_177 tmp_178))) (not (F__4 tmp_177 tmp_178))) (not (F__5 tmp_177 tmp_178))) (not (F__6 tmp_177 tmp_178))) (not (F__7 tmp_177 tmp_178))) (not (F__8 tmp_177 tmp_178))) (not (F__9 tmp_177 tmp_178))) (not (F__10 tmp_177 tmp_178))) (not (F__12 tmp_177 tmp_178))) (not (F__13 tmp_177 tmp_178))) (not (F__14 tmp_177 tmp_178))) (not (F__15 tmp_177 tmp_178))) (not (F__16 tmp_177 tmp_178))) (not (F__17 tmp_177 tmp_178))) (not (F__18 tmp_177 tmp_178))) (not (F__19 tmp_177 tmp_178))) (not (F__20 tmp_177 tmp_178))) (not (F_ERR tmp_177 tmp_178))))))
(assert (forall ((tmp_179 Int) (tmp_180 Int))
        (=> (F__12 tmp_179 tmp_180) (and (and (and (and (and (and (and (and (and (and (and (and (and (and (and (and (and (and (and (and (not (F__0 tmp_179 tmp_180)) (not (F__1 tmp_179 tmp_180))) (not (F__2 tmp_179 tmp_180))) (not (F__3 tmp_179 tmp_180))) (not (F__4 tmp_179 tmp_180))) (not (F__5 tmp_179 tmp_180))) (not (F__6 tmp_179 tmp_180))) (not (F__7 tmp_179 tmp_180))) (not (F__8 tmp_179 tmp_180))) (not (F__9 tmp_179 tmp_180))) (not (F__10 tmp_179 tmp_180))) (not (F__11 tmp_179 tmp_180))) (not (F__13 tmp_179 tmp_180))) (not (F__14 tmp_179 tmp_180))) (not (F__15 tmp_179 tmp_180))) (not (F__16 tmp_179 tmp_180))) (not (F__17 tmp_179 tmp_180))) (not (F__18 tmp_179 tmp_180))) (not (F__19 tmp_179 tmp_180))) (not (F__20 tmp_179 tmp_180))) (not (F_ERR tmp_179 tmp_180))))))
(assert (forall ((tmp_181 Int) (tmp_182 Int))
        (=> (F__13 tmp_181 tmp_182) (and (and (and (and (and (and (and (and (and (and (and (and (and (and (and (and (and (and (and (and (not (F__0 tmp_181 tmp_182)) (not (F__1 tmp_181 tmp_182))) (not (F__2 tmp_181 tmp_182))) (not (F__3 tmp_181 tmp_182))) (not (F__4 tmp_181 tmp_182))) (not (F__5 tmp_181 tmp_182))) (not (F__6 tmp_181 tmp_182))) (not (F__7 tmp_181 tmp_182))) (not (F__8 tmp_181 tmp_182))) (not (F__9 tmp_181 tmp_182))) (not (F__10 tmp_181 tmp_182))) (not (F__11 tmp_181 tmp_182))) (not (F__12 tmp_181 tmp_182))) (not (F__14 tmp_181 tmp_182))) (not (F__15 tmp_181 tmp_182))) (not (F__16 tmp_181 tmp_182))) (not (F__17 tmp_181 tmp_182))) (not (F__18 tmp_181 tmp_182))) (not (F__19 tmp_181 tmp_182))) (not (F__20 tmp_181 tmp_182))) (not (F_ERR tmp_181 tmp_182))))))
(assert (forall ((tmp_183 Int) (tmp_184 Int))
        (=> (F__14 tmp_183 tmp_184) (and (and (and (and (and (and (and (and (and (and (and (and (and (and (and (and (and (and (and (and (not (F__0 tmp_183 tmp_184)) (not (F__1 tmp_183 tmp_184))) (not (F__2 tmp_183 tmp_184))) (not (F__3 tmp_183 tmp_184))) (not (F__4 tmp_183 tmp_184))) (not (F__5 tmp_183 tmp_184))) (not (F__6 tmp_183 tmp_184))) (not (F__7 tmp_183 tmp_184))) (not (F__8 tmp_183 tmp_184))) (not (F__9 tmp_183 tmp_184))) (not (F__10 tmp_183 tmp_184))) (not (F__11 tmp_183 tmp_184))) (not (F__12 tmp_183 tmp_184))) (not (F__13 tmp_183 tmp_184))) (not (F__15 tmp_183 tmp_184))) (not (F__16 tmp_183 tmp_184))) (not (F__17 tmp_183 tmp_184))) (not (F__18 tmp_183 tmp_184))) (not (F__19 tmp_183 tmp_184))) (not (F__20 tmp_183 tmp_184))) (not (F_ERR tmp_183 tmp_184))))))
(assert (forall ((tmp_185 Int) (tmp_186 Int))
        (=> (F__15 tmp_185 tmp_186) (and (and (and (and (and (and (and (and (and (and (and (and (and (and (and (and (and (and (and (and (not (F__0 tmp_185 tmp_186)) (not (F__1 tmp_185 tmp_186))) (not (F__2 tmp_185 tmp_186))) (not (F__3 tmp_185 tmp_186))) (not (F__4 tmp_185 tmp_186))) (not (F__5 tmp_185 tmp_186))) (not (F__6 tmp_185 tmp_186))) (not (F__7 tmp_185 tmp_186))) (not (F__8 tmp_185 tmp_186))) (not (F__9 tmp_185 tmp_186))) (not (F__10 tmp_185 tmp_186))) (not (F__11 tmp_185 tmp_186))) (not (F__12 tmp_185 tmp_186))) (not (F__13 tmp_185 tmp_186))) (not (F__14 tmp_185 tmp_186))) (not (F__16 tmp_185 tmp_186))) (not (F__17 tmp_185 tmp_186))) (not (F__18 tmp_185 tmp_186))) (not (F__19 tmp_185 tmp_186))) (not (F__20 tmp_185 tmp_186))) (not (F_ERR tmp_185 tmp_186))))))
(assert (forall ((tmp_187 Int) (tmp_188 Int))
        (=> (F__16 tmp_187 tmp_188) (and (and (and (and (and (and (and (and (and (and (and (and (and (and (and (and (and (and (and (and (not (F__0 tmp_187 tmp_188)) (not (F__1 tmp_187 tmp_188))) (not (F__2 tmp_187 tmp_188))) (not (F__3 tmp_187 tmp_188))) (not (F__4 tmp_187 tmp_188))) (not (F__5 tmp_187 tmp_188))) (not (F__6 tmp_187 tmp_188))) (not (F__7 tmp_187 tmp_188))) (not (F__8 tmp_187 tmp_188))) (not (F__9 tmp_187 tmp_188))) (not (F__10 tmp_187 tmp_188))) (not (F__11 tmp_187 tmp_188))) (not (F__12 tmp_187 tmp_188))) (not (F__13 tmp_187 tmp_188))) (not (F__14 tmp_187 tmp_188))) (not (F__15 tmp_187 tmp_188))) (not (F__17 tmp_187 tmp_188))) (not (F__18 tmp_187 tmp_188))) (not (F__19 tmp_187 tmp_188))) (not (F__20 tmp_187 tmp_188))) (not (F_ERR tmp_187 tmp_188))))))
(assert (forall ((tmp_189 Int) (tmp_190 Int))
        (=> (F__17 tmp_189 tmp_190) (and (and (and (and (and (and (and (and (and (and (and (and (and (and (and (and (and (and (and (and (not (F__0 tmp_189 tmp_190)) (not (F__1 tmp_189 tmp_190))) (not (F__2 tmp_189 tmp_190))) (not (F__3 tmp_189 tmp_190))) (not (F__4 tmp_189 tmp_190))) (not (F__5 tmp_189 tmp_190))) (not (F__6 tmp_189 tmp_190))) (not (F__7 tmp_189 tmp_190))) (not (F__8 tmp_189 tmp_190))) (not (F__9 tmp_189 tmp_190))) (not (F__10 tmp_189 tmp_190))) (not (F__11 tmp_189 tmp_190))) (not (F__12 tmp_189 tmp_190))) (not (F__13 tmp_189 tmp_190))) (not (F__14 tmp_189 tmp_190))) (not (F__15 tmp_189 tmp_190))) (not (F__16 tmp_189 tmp_190))) (not (F__18 tmp_189 tmp_190))) (not (F__19 tmp_189 tmp_190))) (not (F__20 tmp_189 tmp_190))) (not (F_ERR tmp_189 tmp_190))))))
(assert (forall ((tmp_191 Int) (tmp_192 Int))
        (=> (F__18 tmp_191 tmp_192) (and (and (and (and (and (and (and (and (and (and (and (and (and (and (and (and (and (and (and (and (not (F__0 tmp_191 tmp_192)) (not (F__1 tmp_191 tmp_192))) (not (F__2 tmp_191 tmp_192))) (not (F__3 tmp_191 tmp_192))) (not (F__4 tmp_191 tmp_192))) (not (F__5 tmp_191 tmp_192))) (not (F__6 tmp_191 tmp_192))) (not (F__7 tmp_191 tmp_192))) (not (F__8 tmp_191 tmp_192))) (not (F__9 tmp_191 tmp_192))) (not (F__10 tmp_191 tmp_192))) (not (F__11 tmp_191 tmp_192))) (not (F__12 tmp_191 tmp_192))) (not (F__13 tmp_191 tmp_192))) (not (F__14 tmp_191 tmp_192))) (not (F__15 tmp_191 tmp_192))) (not (F__16 tmp_191 tmp_192))) (not (F__17 tmp_191 tmp_192))) (not (F__19 tmp_191 tmp_192))) (not (F__20 tmp_191 tmp_192))) (not (F_ERR tmp_191 tmp_192))))))
(assert (forall ((tmp_193 Int) (tmp_194 Int))
        (=> (F__19 tmp_193 tmp_194) (and (and (and (and (and (and (and (and (and (and (and (and (and (and (and (and (and (and (and (and (not (F__0 tmp_193 tmp_194)) (not (F__1 tmp_193 tmp_194))) (not (F__2 tmp_193 tmp_194))) (not (F__3 tmp_193 tmp_194))) (not (F__4 tmp_193 tmp_194))) (not (F__5 tmp_193 tmp_194))) (not (F__6 tmp_193 tmp_194))) (not (F__7 tmp_193 tmp_194))) (not (F__8 tmp_193 tmp_194))) (not (F__9 tmp_193 tmp_194))) (not (F__10 tmp_193 tmp_194))) (not (F__11 tmp_193 tmp_194))) (not (F__12 tmp_193 tmp_194))) (not (F__13 tmp_193 tmp_194))) (not (F__14 tmp_193 tmp_194))) (not (F__15 tmp_193 tmp_194))) (not (F__16 tmp_193 tmp_194))) (not (F__17 tmp_193 tmp_194))) (not (F__18 tmp_193 tmp_194))) (not (F__20 tmp_193 tmp_194))) (not (F_ERR tmp_193 tmp_194))))))
(assert (forall ((tmp_195 Int) (tmp_196 Int))
        (=> (F__20 tmp_195 tmp_196) (and (and (and (and (and (and (and (and (and (and (and (and (and (and (and (and (and (and (and (and (not (F__0 tmp_195 tmp_196)) (not (F__1 tmp_195 tmp_196))) (not (F__2 tmp_195 tmp_196))) (not (F__3 tmp_195 tmp_196))) (not (F__4 tmp_195 tmp_196))) (not (F__5 tmp_195 tmp_196))) (not (F__6 tmp_195 tmp_196))) (not (F__7 tmp_195 tmp_196))) (not (F__8 tmp_195 tmp_196))) (not (F__9 tmp_195 tmp_196))) (not (F__10 tmp_195 tmp_196))) (not (F__11 tmp_195 tmp_196))) (not (F__12 tmp_195 tmp_196))) (not (F__13 tmp_195 tmp_196))) (not (F__14 tmp_195 tmp_196))) (not (F__15 tmp_195 tmp_196))) (not (F__16 tmp_195 tmp_196))) (not (F__17 tmp_195 tmp_196))) (not (F__18 tmp_195 tmp_196))) (not (F__19 tmp_195 tmp_196))) (not (F_ERR tmp_195 tmp_196))))))
(assert (forall ((tmp_197 Int) (tmp_198 Int))
        (=> (F_ERR tmp_197 tmp_198) (and (and (and (and (and (and (and (and (and (and (and (and (and (and (and (and (and (and (and (and (not (F__0 tmp_197 tmp_198)) (not (F__1 tmp_197 tmp_198))) (not (F__2 tmp_197 tmp_198))) (not (F__3 tmp_197 tmp_198))) (not (F__4 tmp_197 tmp_198))) (not (F__5 tmp_197 tmp_198))) (not (F__6 tmp_197 tmp_198))) (not (F__7 tmp_197 tmp_198))) (not (F__8 tmp_197 tmp_198))) (not (F__9 tmp_197 tmp_198))) (not (F__10 tmp_197 tmp_198))) (not (F__11 tmp_197 tmp_198))) (not (F__12 tmp_197 tmp_198))) (not (F__13 tmp_197 tmp_198))) (not (F__14 tmp_197 tmp_198))) (not (F__15 tmp_197 tmp_198))) (not (F__16 tmp_197 tmp_198))) (not (F__17 tmp_197 tmp_198))) (not (F__18 tmp_197 tmp_198))) (not (F__19 tmp_197 tmp_198))) (not (F__20 tmp_197 tmp_198))))))
(check-sat)
